90
2430
10
30
31
4
35
61
1
43
51
49
49
0 1
0 4
0 6
0 7
0 8
0 9
0 10
0 13
0 16
0 17
0 21
0 24
0 25
0 26
0 27
0 28
0 29
0 30
0 32
0 33
0 36
0 37
0 38
0 39
0 41
0 43
0 45
0 46
0 47
0 49
0 50
0 54
0 56
0 57
0 59
0 60
0 61
0 62
0 64
0 65
0 70
0 71
0 74
0 76
0 77
0 78
0 79
0 82
0 83
0 84
0 85
0 86
0 87
0 88
1 2
1 5
1 6
1 7
1 8
1 9
1 12
1 13
1 15
1 17
1 18
1 20
1 21
1 23
1 24
1 25
1 26
1 32
1 39
1 40
1 47
1 48
1 49
1 50
1 51
1 56
1 58
1 59
1 61
1 62
1 63
1 64
1 66
1 67
1 69
1 71
1 72
1 75
1 76
1 80
1 81
1 82
1 83
1 84
1 85
1 86
1 89
2 5
2 6
2 7
2 8
2 9
2 11
2 12
2 14
2 15
2 16
2 17
2 18
2 19
2 20
2 25
2 26
2 29
2 30
2 32
2 34
2 35
2 36
2 37
2 38
2 39
2 40
2 41
2 42
2 43
2 44
2 46
2 47
2 48
2 49
2 50
2 52
2 53
2 54
2 55
2 59
2 62
2 63
2 64
2 65
2 66
2 67
2 68
2 70
2 73
2 75
2 77
2 81
2 82
2 84
2 85
2 87
2 88
2 89
3 4
3 6
3 7
3 8
3 12
3 13
3 16
3 17
3 18
3 19
3 20
3 22
3 23
3 26
3 29
3 30
3 31
3 36
3 37
3 38
3 40
3 41
3 42
3 43
3 46
3 49
3 50
3 51
3 52
3 54
3 55
3 56
3 57
3 59
3 60
3 61
3 62
3 67
3 68
3 69
3 70
3 71
3 72
3 74
3 76
3 78
3 79
3 81
3 82
3 83
3 84
3 86
3 89
4 6
4 8
4 11
4 12
4 13
4 15
4 16
4 20
4 22
4 25
4 28
4 29
4 31
4 33
4 34
4 36
4 37
4 39
4 40
4 41
4 42
4 45
4 47
4 49
4 51
4 55
4 57
4 58
4 60
4 62
4 63
4 66
4 67
4 69
4 72
4 73
4 74
4 75
4 76
4 77
4 80
4 81
4 86
5 6
5 8
5 9
5 10
5 13
5 15
5 16
5 17
5 20
5 21
5 23
5 26
5 27
5 28
5 29
5 30
5 32
5 33
5 35
5 36
5 38
5 40
5 41
5 43
5 44
5 46
5 48
5 49
5 53
5 54
5 55
5 56
5 57
5 58
5 59
5 60
5 61
5 64
5 69
5 70
5 71
5 74
5 75
5 80
5 82
5 83
5 84
5 85
5 88
6 9
6 10
6 11
6 13
6 15
6 16
6 17
6 18
6 19
6 20
6 21
6 22
6 23
6 24
6 25
6 26
6 27
6 30
6 31
6 32
6 34
6 35
6 37
6 38
6 43
6 46
6 48
6 51
6 54
6 57
6 58
6 59
6 60
6 61
6 62
6 63
6 65
6 66
6 67
6 70
6 75
6 77
6 78
6 80
6 81
6 82
6 83
6 86
6 87
6 88
7 9
7 15
7 17
7 18
7 19
7 20
7 22
7 23
7 25
7 26
7 27
7 28
7 29
7 30
7 31
7 32
7 34
7 35
7 37
7 38
7 39
7 41
7 44
7 45
7 46
7 47
7 48
7 49
7 50
7 51
7 52
7 54
7 56
7 59
7 61
7 63
7 67
7 68
7 71
7 72
7 74
7 75
7 76
7 81
7 82
7 83
7 84
7 87
7 89
8 9
8 10
8 12
8 14
8 15
8 17
8 18
8 19
8 21
8 23
8 24
8 25
8 26
8 27
8 28
8 29
8 31
8 32
8 33
8 34
8 35
8 36
8 39
8 40
8 43
8 44
8 45
8 46
8 47
8 48
8 50
8 51
8 52
8 53
8 55
8 56
8 57
8 58
8 60
8 61
8 62
8 63
8 65
8 66
8 67
8 68
8 69
8 71
8 72
8 76
8 82
8 85
8 86
8 87
8 89
9 10
9 11
9 13
9 16
9 18
9 19
9 22
9 23
9 24
9 25
9 26
9 28
9 29
9 35
9 39
9 44
9 45
9 47
9 48
9 49
9 50
9 51
9 55
9 56
9 57
9 58
9 60
9 62
9 63
9 64
9 65
9 66
9 68
9 69
9 70
9 71
9 72
9 75
9 77
9 78
9 79
9 80
9 82
9 83
9 84
9 85
9 87
9 88
10 12
10 13
10 15
10 16
10 17
10 18
10 20
10 21
10 22
10 23
10 24
10 25
10 26
10 27
10 28
10 30
10 31
10 32
10 35
10 37
10 40
10 41
10 43
10 44
10 45
10 46
10 47
10 51
10 53
10 55
10 56
10 59
10 60
10 61
10 62
10 65
10 66
10 67
10 68
10 72
10 75
10 79
10 81
10 82
10 83
10 84
10 85
10 86
10 88
10 89
11 12
11 16
11 17
11 18
11 22
11 23
11 25
11 26
11 29
11 33
11 34
11 36
11 40
11 44
11 45
11 47
11 48
11 49
11 56
11 60
11 62
11 63
11 65
11 67
11 68
11 69
11 72
11 75
11 76
11 79
11 80
11 84
11 85
11 89
12 15
12 16
12 18
12 19
12 22
12 23
12 25
12 26
12 27
12 28
12 29
12 30
12 31
12 33
12 34
12 35
12 40
12 42
12 43
12 45
12 46
12 47
12 48
12 49
12 50
12 51
12 56
12 57
12 58
12 59
12 61
12 62
12 63
12 65
12 66
12 67
12 69
12 70
12 71
12 73
12 74
12 76
12 77
12 78
12 79
12 80
12 82
12 85
12 86
12 89
13 14
13 15
13 16
13 17
13 18
13 19
13 21
13 22
13 23
13 24
13 26
13 29
13 30
13 32
13 33
13 34
13 35
13 36
13 37
13 38
13 41
13 42
13 44
13 45
13 46
13 49
13 50
13 52
13 54
13 56
13 58
13 60
13 61
13 62
13 63
13 64
13 66
13 68
13 70
13 71
13 72
13 74
13 77
13 79
13 81
13 82
13 84
13 85
13 86
13 87
13 88
13 89
14 15
14 16
14 17
14 18
14 19
14 20
14 21
14 22
14 24
14 25
14 27
14 28
14 29
14 30
14 32
14 33
14 34
14 35
14 37
14 39
14 40
14 42
14 43
14 44
14 50
14 53
14 55
14 56
14 57
14 58
14 59
14 60
14 62
14 63
14 64
14 65
14 67
14 68
14 69
14 72
14 73
14 74
14 79
14 81
14 82
14 86
14 87
14 88
14 89
15 17
15 18
15 19
15 20
15 22
15 23
15 25
15 28
15 31
15 32
15 33
15 34
15 35
15 37
15 39
15 40
15 41
15 45
15 47
15 51
15 52
15 54
15 55
15 56
15 57
15 58
15 59
15 60
15 61
15 63
15 65
15 66
15 67
15 68
15 69
15 70
15 72
15 73
15 74
15 75
15 77
15 79
15 80
15 81
15 82
15 86
15 87
16 18
16 21
16 22
16 25
16 26
16 27
16 28
16 29
16 31
16 32
16 33
16 34
16 35
16 36
16 37
16 39
16 41
16 42
16 43
16 44
16 46
16 48
16 49
16 52
16 53
16 56
16 57
16 58
16 59
16 60
16 61
16 62
16 63
16 64
16 65
16 67
16 68
16 73
16 74
16 75
16 76
16 77
16 79
16 81
16 82
16 84
16 85
16 86
16 88
16 89
17 18
17 19
17 22
17 23
17 24
17 25
17 26
17 28
17 31
17 32
17 33
17 34
17 35
17 40
17 41
17 42
17 43
17 44
17 45
17 48
17 49
17 51
17 53
17 54
17 57
17 59
17 60
17 61
17 62
17 63
17 65
17 66
17 67
17 68
17 69
17 70
17 71
17 72
17 73
17 74
17 75
17 76
17 77
17 78
17 80
17 81
17 82
17 83
17 87
17 88
17 89
18 19
18 21
18 22
18 23
18 24
18 27
18 28
18 29
18 30
18 31
18 32
18 33
18 34
18 35
18 36
18 37
18 38
18 39
18 40
18 42
18 46
18 47
18 49
18 50
18 51
18 53
18 55
18 56
18 57
18 58
18 61
18 64
18 65
18 66
18 67
18 71
18 72
18 73
18 74
18 75
18 77
18 79
18 80
18 82
18 83
18 87
18 89
19 20
19 21
19 25
19 26
19 27
19 33
19 34
19 35
19 37
19 38
19 39
19 40
19 41
19 42
19 43
19 44
19 45
19 47
19 48
19 49
19 51
19 54
19 55
19 56
19 59
19 62
19 67
19 68
19 69
19 70
19 72
19 73
19 75
19 76
19 77
19 78
19 79
19 80
19 82
19 83
19 84
19 85
19 87
19 88
19 89
20 21
20 23
20 24
20 27
20 29
20 31
20 32
20 33
20 34
20 37
20 38
20 39
20 40
20 43
20 44
20 45
20 46
20 47
20 48
20 49
20 50
20 51
20 52
20 53
20 54
20 56
20 57
20 58
20 59
20 61
20 63
20 64
20 66
20 67
20 70
20 73
20 74
20 76
20 77
20 78
20 80
20 81
20 82
20 83
20 86
20 87
20 88
20 89
21 22
21 25
21 26
21 27
21 28
21 29
21 30
21 31
21 32
21 35
21 36
21 37
21 38
21 41
21 42
21 44
21 45
21 46
21 48
21 49
21 51
21 52
21 55
21 57
21 58
21 59
21 62
21 65
21 66
21 67
21 70
21 73
21 78
21 79
21 80
21 83
21 84
21 85
21 87
21 88
21 89
22 23
22 27
22 32
22 35
22 36
22 37
22 38
22 41
22 46
22 47
22 48
22 49
22 51
22 53
22 54
22 55
22 56
22 58
22 59
22 63
22 64
22 66
22 67
22 73
22 74
22 75
22 76
22 77
22 79
22 80
22 82
22 83
22 84
22 86
22 89
23 30
23 31
23 34
23 38
23 39
23 40
23 41
23 42
23 43
23 45
23 46
23 49
23 50
23 52
23 55
23 56
23 57
23 58
23 59
23 61
23 63
23 64
23 65
23 67
23 68
23 70
23 71
23 72
23 74
23 75
23 78
23 79
23 80
23 82
23 83
23 86
23 88
23 89
24 26
24 29
24 32
24 33
24 34
24 35
24 37
24 39
24 40
24 42
24 46
24 47
24 48
24 49
24 51
24 54
24 56
24 57
24 61
24 65
24 66
24 69
24 70
24 71
24 72
24 74
24 75
24 76
24 77
24 78
24 79
24 80
24 81
24 82
24 86
24 87
24 88
25 29
25 30
25 31
25 35
25 36
25 37
25 38
25 39
25 40
25 41
25 44
25 45
25 46
25 47
25 52
25 53
25 54
25 56
25 57
25 58
25 59
25 61
25 63
25 66
25 67
25 69
25 71
25 72
25 73
25 79
25 80
25 82
25 84
25 86
25 87
25 88
26 27
26 28
26 29
26 30
26 32
26 33
26 34
26 35
26 37
26 38
26 40
26 42
26 44
26 45
26 47
26 48
26 51
26 53
26 54
26 56
26 63
26 64
26 65
26 66
26 67
26 69
26 71
26 74
26 75
26 76
26 77
26 79
26 80
26 81
26 83
26 84
26 85
26 86
26 88
27 28
27 29
27 30
27 33
27 36
27 38
27 39
27 40
27 41
27 44
27 45
27 46
27 51
27 52
27 55
27 58
27 61
27 64
27 65
27 66
27 67
27 69
27 70
27 71
27 72
27 73
27 74
27 75
27 76
27 78
27 79
27 81
27 85
27 86
27 87
27 89
28 30
28 31
28 32
28 33
28 34
28 37
28 38
28 39
28 40
28 41
28 44
28 45
28 46
28 47
28 48
28 50
28 54
28 56
28 57
28 60
28 62
28 64
28 65
28 66
28 69
28 70
28 71
28 72
28 74
28 77
28 79
28 80
28 81
28 83
28 84
28 85
28 86
28 87
28 88
28 89
29 31
29 33
29 34
29 35
29 36
29 39
29 41
29 45
29 47
29 48
29 49
29 51
29 52
29 53
29 54
29 55
29 60
29 63
29 66
29 69
29 70
29 74
29 75
29 77
29 79
29 80
29 81
29 82
29 84
29 85
29 86
29 88
30 31
30 32
30 34
30 35
30 36
30 37
30 38
30 39
30 40
30 44
30 45
30 49
30 51
30 52
30 55
30 58
30 59
30 61
30 62
30 64
30 66
30 67
30 68
30 69
30 70
30 71
30 72
30 74
30 76
30 78
30 79
30 80
30 81
30 82
30 84
30 85
30 87
30 89
31 32
31 33
31 34
31 36
31 39
31 41
31 42
31 44
31 45
31 47
31 48
31 50
31 51
31 52
31 54
31 55
31 59
31 60
31 61
31 62
31 63
31 66
31 71
31 72
31 75
31 76
31 80
31 81
31 82
31 85
31 86
31 88
31 89
32 33
32 39
32 40
32 43
32 44
32 47
32 49
32 51
32 52
32 53
32 55
32 57
32 58
32 59
32 60
32 61
32 62
32 64
32 65
32 68
32 69
32 73
32 78
32 79
32 80
32 83
32 84
32 85
32 87
32 88
32 89
33 34
33 35
33 39
33 40
33 42
33 45
33 46
33 47
33 49
33 50
33 52
33 56
33 61
33 63
33 64
33 66
33 68
33 70
33 71
33 72
33 74
33 75
33 76
33 80
33 82
33 83
33 84
33 85
33 86
33 87
33 88
33 89
34 35
34 36
34 38
34 40
34 43
34 44
34 45
34 46
34 47
34 48
34 49
34 50
34 51
34 54
34 55
34 58
34 61
34 65
34 67
34 71
34 72
34 73
34 74
34 75
34 76
34 77
34 79
34 80
34 81
34 83
34 84
34 86
34 87
34 88
34 89
35 38
35 40
35 41
35 43
35 46
35 47
35 51
35 52
35 53
35 54
35 55
35 57
35 60
35 61
35 62
35 63
35 64
35 65
35 66
35 67
35 68
35 69
35 70
35 72
35 73
35 74
35 76
35 77
35 78
35 80
35 81
35 82
35 83
35 84
35 85
35 86
35 87
35 88
35 89
36 39
36 41
36 42
36 43
36 47
36 49
36 50
36 52
36 53
36 54
36 55
36 56
36 57
36 58
36 61
36 62
36 63
36 64
36 67
36 68
36 70
36 71
36 72
36 73
36 74
36 75
36 76
36 77
36 78
36 79
36 84
36 85
36 86
36 87
36 88
36 89
37 40
37 42
37 45
37 47
37 49
37 50
37 52
37 53
37 57
37 58
37 60
37 62
37 63
37 65
37 68
37 69
37 71
37 72
37 74
37 75
37 76
37 77
37 79
37 80
37 81
37 83
37 84
37 86
37 88
37 89
38 39
38 41
38 42
38 45
38 46
38 48
38 49
38 50
38 51
38 54
38 55
38 56
38 64
38 65
38 66
38 71
38 72
38 74
38 75
38 77
38 80
38 81
38 82
38 85
38 87
38 89
39 41
39 42
39 43
39 46
39 47
39 53
39 55
39 57
39 60
39 62
39 63
39 64
39 67
39 68
39 69
39 71
39 72
39 73
39 75
39 76
39 79
39 80
39 81
39 82
39 83
39 84
39 86
39 87
40 42
40 43
40 46
40 47
40 49
40 51
40 52
40 54
40 62
40 63
40 64
40 68
40 69
40 70
40 72
40 73
40 74
40 75
40 77
40 78
40 79
40 80
40 81
40 83
40 84
40 85
40 86
40 89
41 42
41 43
41 44
41 45
41 46
41 47
41 53
41 54
41 56
41 59
41 60
41 64
41 65
41 68
41 69
41 71
41 72
41 73
41 75
41 76
41 77
41 80
41 84
41 88
41 89
42 45
42 46
42 47
42 48
42 51
42 54
42 55
42 58
42 59
42 60
42 64
42 65
42 66
42 69
42 71
42 74
42 75
42 76
42 77
42 79
42 80
42 81
42 82
42 83
42 84
42 87
42 88
43 44
43 46
43 47
43 49
43 50
43 53
43 55
43 57
43 58
43 59
43 60
43 61
43 66
43 67
43 69
43 70
43 73
43 74
43 76
43 77
43 78
43 79
43 80
43 81
43 82
43 83
43 85
43 86
43 88
43 89
44 45
44 46
44 48
44 49
44 53
44 55
44 56
44 57
44 58
44 60
44 62
44 65
44 66
44 67
44 68
44 69
44 70
44 71
44 72
44 73
44 74
44 76
44 77
44 78
44 83
44 85
44 86
44 87
44 88
44 89
45 46
45 47
45 48
45 49
45 51
45 52
45 54
45 55
45 56
45 57
45 59
45 61
45 66
45 72
45 74
45 75
45 77
45 78
45 80
45 84
45 86
45 87
45 88
45 89
46 47
46 48
46 51
46 52
46 53
46 54
46 55
46 56
46 57
46 58
46 59
46 61
46 62
46 64
46 65
46 66
46 67
46 69
46 71
46 76
46 79
46 80
46 84
46 85
46 87
46 88
47 49
47 52
47 54
47 55
47 57
47 58
47 62
47 63
47 67
47 69
47 71
47 72
47 76
47 79
47 81
47 83
47 84
47 85
47 87
48 49
48 51
48 52
48 53
48 56
48 57
48 58
48 59
48 61
48 62
48 64
48 65
48 66
48 67
48 69
48 71
48 73
48 77
48 78
48 79
48 80
48 81
48 83
48 84
48 88
49 50
49 55
49 59
49 61
49 62
49 66
49 68
49 69
49 71
49 74
49 75
49 78
49 80
49 83
49 87
49 88
50 51
50 52
50 55
50 56
50 58
50 59
50 60
50 61
50 62
50 63
50 64
50 65
50 66
50 68
50 69
50 71
50 72
50 73
50 74
50 77
50 80
50 81
50 84
50 85
50 87
51 52
51 53
51 55
51 56
51 57
51 58
51 61
51 62
51 63
51 65
51 66
51 67
51 69
51 70
51 71
51 73
51 74
51 75
51 76
51 78
51 80
51 81
51 82
51 84
51 85
51 87
51 88
52 54
52 57
52 58
52 59
52 60
52 62
52 63
52 64
52 66
52 67
52 68
52 72
52 74
52 75
52 76
52 79
52 81
52 82
52 84
52 86
52 87
52 88
52 89
53 54
53 57
53 58
53 60
53 61
53 62
53 63
53 65
53 67
53 68
53 69
53 71
53 75
53 76
53 77
53 78
53 80
53 84
53 85
53 86
53 87
53 88
54 58
54 62
54 63
54 65
54 66
54 68
54 69
54 70
54 71
54 73
54 74
54 75
54 76
54 78
54 79
54 82
54 83
54 84
54 85
54 87
54 89
55 56
55 57
55 58
55 59
55 60
55 62
55 64
55 66
55 67
55 68
55 69
55 70
55 73
55 74
55 76
55 78
55 80
55 81
55 83
55 84
55 86
55 87
55 88
55 89
56 57
56 58
56 59
56 61
56 62
56 63
56 64
56 67
56 68
56 69
56 70
56 71
56 73
56 75
56 76
56 78
56 79
56 80
56 83
56 84
56 85
56 86
56 87
56 89
57 61
57 62
57 63
57 67
57 68
57 74
57 75
57 76
57 78
57 84
57 85
57 86
57 88
57 89
58 60
58 61
58 62
58 63
58 64
58 65
58 66
58 67
58 68
58 72
58 73
58 75
58 76
58 80
58 82
58 83
58 84
58 86
58 87
58 89
59 60
59 66
59 67
59 68
59 70
59 71
59 73
59 77
59 79
59 80
59 82
59 83
59 86
59 87
59 88
59 89
60 62
60 64
60 65
60 66
60 68
60 69
60 72
60 73
60 75
60 76
60 78
60 79
60 80
60 81
60 84
60 86
61 62
61 63
61 64
61 66
61 67
61 68
61 69
61 70
61 71
61 73
61 74
61 77
61 78
61 81
61 82
61 83
61 87
61 89
62 63
62 64
62 65
62 66
62 67
62 69
62 72
62 73
62 75
62 76
62 78
62 79
62 80
62 81
62 82
62 86
62 87
62 88
63 64
63 65
63 66
63 68
63 70
63 72
63 73
63 74
63 76
63 78
63 79
63 81
63 82
63 84
63 86
63 87
63 88
64 66
64 67
64 69
64 72
64 73
64 74
64 76
64 77
64 79
64 80
64 81
64 82
64 83
64 86
64 87
64 89
65 68
65 70
65 72
65 73
65 74
65 75
65 76
65 77
65 79
65 81
65 82
65 83
65 85
65 87
65 88
66 67
66 68
66 69
66 70
66 72
66 74
66 75
66 79
66 80
66 82
66 84
66 85
66 86
66 88
67 68
67 69
67 71
67 73
67 75
67 76
67 77
67 78
67 80
67 81
67 82
67 84
67 85
67 86
68 70
68 72
68 73
68 75
68 76
68 78
68 80
68 81
68 82
68 84
68 85
68 86
68 87
68 88
68 89
69 71
69 72
69 73
69 74
69 77
69 78
69 80
69 82
69 83
69 84
69 86
69 89
70 71
70 72
70 74
70 75
70 78
70 80
70 81
70 83
70 84
70 85
70 86
70 87
70 88
70 89
71 74
71 75
71 76
71 78
71 79
71 80
71 81
71 82
71 83
71 87
71 88
71 89
72 73
72 74
72 77
72 78
72 79
72 80
72 81
72 82
72 83
72 85
72 86
73 75
73 76
73 80
73 81
73 82
73 83
73 84
73 87
73 88
73 89
74 75
74 77
74 83
74 85
74 86
74 87
74 89
75 78
75 79
75 80
75 81
75 82
75 83
75 84
75 85
75 86
75 87
76 77
76 78
76 79
76 81
76 82
76 83
76 84
76 85
76 86
76 87
76 89
77 78
77 79
77 84
77 85
77 88
77 89
78 82
78 83
78 89
79 80
79 81
79 84
79 85
79 87
80 81
80 83
80 84
80 85
80 86
80 89
81 82
81 85
81 86
81 89
82 84
82 85
82 87
83 84
83 85
83 87
83 88
83 89
84 85
84 86
84 88
84 89
85 88
85 89
86 87
86 88
86 89
87 88
87 89
63 45 34 40 76 44 18 9 82
78 58 38 57 85 55 31 14 26
64 54 30 72 67 23 27 59 42
28 60 41 32 56 43 62 19 17
21 35 71 47 1 0 80 66 24
39 20 74 3 83 33 77 2 84
87 79 88 46 11 25 89 10 6
75 68 16 81 86 5 61 73 7
15 48 36 52 37 69 22 51 12
8 53 49 70 65 50 13 4 29
